35 55 46 1 39 79 36 83 52 17 27 14 81 59 51 93 32 28 26 92 0 38 15 44 80 42 85 30 4 23 41 10 43 8 95 34 75 49 11 25 87 7 91 82 68 2 48 97 37 47 45 73 3 84 16 96 5 18 86 40 20 76 6 29 66 70 13 12 61 72 64 69 67 31 9 98 63 54 65 90 22 77 33 94 89 50 60 24 19 58 53 57 21 78 56 88 99 62 74 71 

